unknown
(model
; cardinality of BoundSet is 2
(declare-sort BoundSet 0)
; rep: @uc_BoundSet_0
; rep: @uc_BoundSet_1
; cardinality of UnboundSet is 1
(declare-sort UnboundSet 0)
(declare-fun groundTerm_3 () UnboundSet)
(define-fun IsClimbedUp ((BOUND_VARIABLE_405 BoundSet)) Bool true)
(define-fun IsWoreStructure ((BOUND_VARIABLE_405 BoundSet)) Bool true)
(define-fun IsOnMoon ((BOUND_VARIABLE_405 BoundSet)) Bool false)
(define-fun IsTook ((BOUND_VARIABLE_421 BoundSet) (BOUND_VARIABLE_422 BoundSet)) Bool false)
)
sat
(model
; cardinality of BoundSet is 1
(declare-sort BoundSet 0)
; rep: @uc_BoundSet_0
; cardinality of UnboundSet is 1
(declare-sort UnboundSet 0)
(declare-fun groundTerm_5 () UnboundSet)
(define-fun IsClimbedUp ((BOUND_VARIABLE_433 BoundSet)) Bool true)
(define-fun IsWoreStructure ((BOUND_VARIABLE_433 BoundSet)) Bool true)
(define-fun IsOnMoon ((BOUND_VARIABLE_433 BoundSet)) Bool false)
(define-fun IsTook ((BOUND_VARIABLE_446 BoundSet) (BOUND_VARIABLE_447 BoundSet)) Bool false)
)
